NAME : amz2477.136980_67980.tour
COMMENT : Cost = 136980_67980
COMMENT : Found by LKH-AMZ [Keld Helsgaun] Sun May 11 15:14:55 2025
COMMENT : TW viol.: 0 #: 0
TYPE : TOUR
DIMENSION : 110
TOUR_SECTION
55
99
85
6
77
86
3
49
109
7
63
100
18
87
93
16
46
108
96
70
102
47
39
36
76
15
57
62
30
82
2
110
10
104
95
88
71
17
45
61
81
1
24
35
54
32
106
40
43
19
8
98
97
68
52
13
14
105
75
92
59
34
20
101
53
58
84
51
94
50
103
11
64
78
91
90
38
83
33
107
80
29
27
21
66
23
67
28
56
69
74
72
5
42
60
26
41
22
37
25
79
9
89
73
65
31
44
48
4
12
-1
EOF
